c SAT problem
p wcnf 382 1530
1 60 3120 0
1 60 -3135 0
1 75 60 0
1 -90 3105 0
1 90 3090 0
1 -90 -3060 0
1 -105 -3105 0
1 -105 -106 0
1 105 -3150 0
1 3120 -105 0
1 3120 75 0
1 3120 150 0
1 3120 -60 0
1 3120 3135 0
1 3135 -165 0
1 -3135 -135 0
1 3135 105 0
1 -3135 3120 0
1 -3135 -60 0
1 3150 -105 0
1 -3165 -105 0
1 3165 -121 0
1 3165 3166 0
1 120 -3105 0
1 120 135 0
1 -120 3120 0
1 -120 3090 0
1 135 -3075 0
1 -150 3105 0
1 -150 -3075 0
1 -165 -3000 0
1 -3060 -3075 0
1 -3060 165 0
1 -3060 210 0
1 -3060 90 0
1 -3075 -225 0
1 3075 135 0
1 -3075 -120 0
1 3075 -90 0
1 -3090 -3091 0
1 -3090 120 0
1 -3090 90 0
1 3105 -226 0
1 3105 -196 0
1 3105 -135 0
1 3105 -3090 0
1 -3105 -211 0
1 3105 120 0
1 -3105 255 0
1 -180 3075 0
1 180 -3015 0
1 -180 3030 0
1 195 -3075 0
1 -195 3045 0
1 -195 3015 0
1 195 -180 0
1 -210 225 0
1 -210 211 0
1 225 226 0
1 225 3030 0
1 -3000 -225 0
1 3000 -195 0
1 -3000 180 0
1 3000 -150 0
1 3015 -225 0
1 3015 -300 0
1 -3015 -150 0
1 -3015 -3000 0
1 -3030 165 0
1 -3030 -300 0
1 -3030 -270 0
1 -3030 -240 0
1 3030 -255 0
1 3045 195 0
1 3045 -210 0
1 3045 315 0
1 3045 255 0
1 -61 3330 0
1 61 60 0
1 -76 77 0
1 76 3315 0
1 76 61 0
1 -91 3330 0
1 -91 -3300 0
1 91 3240 0
1 91 3255 0
1 -106 -3330 0
1 -106 -3270 0
1 106 -105 0
1 106 3285 0
1 3300 -3301 0
1 3300 136 0
1 3300 76 0
1 3300 -3315 0
1 3300 182 0
1 -3300 -151 0
1 3300 -121 0
1 3300 91 0
1 -3315 3300 0
1 3315 -136 0
1 3315 -106 0
1 3315 76 0
1 -3330 3331 0
1 3330 137 0
1 3330 -76 0
1 -3330 -3345 0
1 3330 122 0
1 3345 3346 0
1 -3345 182 0
1 121 -3150 0
1 -121 -3315 0
1 136 -135 0
1 -136 -3240 0
1 -136 -3150 0
1 -136 3315 0
1 -136 3165 0
1 -151 -3300 0
1 -151 166 0
1 151 3180 0
1 151 -3285 0
1 -151 152 0
1 151 3195 0
1 151 -3165 0
1 166 3300 0
1 -166 -3240 0
1 -166 3180 0
1 166 -3315 0
1 -166 3225 0
1 -166 3195 0
1 166 3165 0
1 3240 -3255 0
1 -3240 -181 0
1 -3240 -151 0
1 -3240 -121 0
1 3255 -256 0
1 -3255 -226 0
1 -3255 196 0
1 3255 -3240 0
1 3255 211 0
1 -3255 -151 0
1 -3255 3256 0
1 3255 -121 0
1 3255 -91 0
1 -3270 -256 0
1 3270 121 0
1 3285 197 0
1 -3285 166 0
1 3285 -3270 0
1 -3285 -136 0
1 3285 -212 0
1 3285 121 0
1 181 3105 0
1 181 -196 0
1 -181 -3210 0
1 181 3255 0
1 -181 3225 0
1 196 -3105 0
1 -196 -3255 0
1 -196 -3195 0
1 211 -3105 0
1 -211 -226 0
1 -211 -3240 0
1 211 -3090 0
1 226 3136 0
1 226 -3210 0
1 226 -3166 0
1 3180 226 0
1 3195 3180 0
1 -3195 -270 0
1 -3195 240 0
1 3195 -211 0
1 -3195 -151 0
1 3210 -241 0
1 3210 -181 0
1 3210 -3225 0
1 -3210 -286 0
1 -3225 256 0
1 3225 -271 0
1 -3225 151 0
1 3225 -286 0
1 -240 -3136 0
1 -240 -3045 0
1 240 3180 0
1 240 3151 0
1 -240 -3090 0
1 240 -3121 0
1 -240 3030 0
1 255 3105 0
1 -255 -3121 0
1 270 -3076 0
1 270 -3121 0
1 -270 3061 0
1 270 -285 0
1 270 -3166 0
1 -285 3180 0
1 -285 270 0
1 -285 3030 0
1 285 3195 0
1 -285 -286 0
1 -3121 226 0
1 -3121 -330 0
1 -3121 300 0
1 3121 270 0
1 3121 240 0
1 -3121 315 0
1 3121 285 0
1 -3136 361 0
1 3136 -240 0
1 3136 376 0
1 3151 -285 0
1 -3151 -3166 0
1 -3166 226 0
1 3166 3151 0
1 3166 3165 0
1 -3166 -376 0
1 3166 -3167 0
1 300 -3106 0
1 -300 3045 0
1 300 -3076 0
1 315 3106 0
1 315 3045 0
1 -315 3121 0
1 -330 -3136 0
1 330 -3121 0
1 -345 3076 0
1 -345 3046 0
1 345 -330 0
1 -345 -3121 0
1 -345 3091 0
1 -345 3001 0
1 3061 -420 0
1 -3061 360 0
1 3061 300 0
1 -3061 435 0
1 -3061 -315 0
1 -3076 3075 0
1 3076 420 0
1 -3076 405 0
1 3091 -3106 0
1 -3091 -300 0
1 -3091 270 0
1 -3091 3090 0
1 -3091 -285 0
1 3106 -361 0
1 3106 330 0
1 3106 406 0
1 3106 345 0
1 -360 3076 0
1 375 -3061 0
1 -375 -376 0
1 390 3076 0
1 390 -3046 0
1 -390 391 0
1 390 3061 0
1 390 -3001 0
1 -405 -3076 0
1 -405 -390 0
1 405 -3046 0
1 -405 -3061 0
1 -405 406 0
1 3001 3000 0
1 -3016 -390 0
1 -3016 3015 0
1 -3016 -360 0
1 3016 -495 0
1 3016 -375 0
1 3031 480 0
1 3031 375 0
1 3046 480 0
1 3046 -450 0
1 3046 -330 0
1 -3046 435 0
1 -62 -3495 0
1 62 -61 0
1 77 -78 0
1 77 3480 0
1 77 -62 0
1 92 -3435 0
1 92 3510 0
1 -107 -108 0
1 107 -3450 0
1 3480 152 0
1 3480 -122 0
1 3480 92 0
1 3495 107 0
1 3495 -77 0
1 -3495 183 0
1 -3495 -92 0
1 3510 -138 0
1 -3510 -107 0
1 3510 -183 0
1 -3510 -62 0
1 3525 198 0
1 3525 107 0
1 -3525 -77 0
1 -3525 -3510 0
1 3525 183 0
1 3525 -123 0
1 -137 3465 0
1 137 -138 0
1 -137 3435 0
1 152 -3495 0
1 -152 3405 0
1 -152 3375 0
1 -152 3420 0
1 -152 3390 0
1 167 -166 0
1 -167 -168 0
1 167 -3465 0
1 -167 152 0
1 3420 257 0
1 3420 -167 0
1 -3420 242 0
1 -3420 92 0
1 3435 227 0
1 -3435 197 0
1 3435 -152 0
1 -3435 -92 0
1 -3450 -257 0
1 3450 228 0
1 -3450 137 0
1 -3450 -3465 0
1 3450 -242 0
1 3450 -183 0
1 3450 152 0
1 3450 122 0
1 -3450 -3451 0
1 -3450 -92 0
1 3465 -167 0
1 3465 -183 0
1 3465 -122 0
1 -3465 -92 0
1 -182 3330 0
1 -182 197 0
1 182 3270 0
1 182 3345 0
1 -182 -181 0
1 197 -3330 0
1 -197 3345 0
1 197 3315 0
1 -197 -3285 0
1 197 -3390 0
1 -212 -3331 0
1 -212 -3301 0
1 212 -3270 0
1 -212 3405 0
1 -212 -3390 0
1 227 -3301 0
1 -227 3270 0
1 227 -3435 0
1 227 -3375 0
1 -227 212 0
1 227 -3390 0
1 3360 271 0
1 3360 212 0
1 3360 317 0
1 -3375 227 0
1 -3375 -167 0
1 -3375 -302 0
1 -3375 271 0
1 3375 -3376 0
1 3375 -286 0
1 -3390 257 0
1 3390 227 0
1 -3390 197 0
1 3390 272 0
1 3390 152 0
1 3405 257 0
1 3405 -227 0
1 -3405 -3406 0
1 3405 -182 0
1 -3405 152 0
1 -3405 317 0
1 241 -3270 0
1 241 -3210 0
1 -241 -242 0
1 256 3360 0
1 -256 3240 0
1 -256 -3316 0
1 -271 -3360 0
1 -286 3360 0
1 -286 -3271 0
1 286 -3241 0
1 -286 -3346 0
1 286 -287 0
1 -3301 -3302 0
1 -3301 -212 0
1 3301 346 0
1 3301 -316 0
1 3316 -3301 0
1 -3316 212 0
1 3316 -346 0
1 3316 316 0
1 3331 -256 0
1 -3331 -3330 0
1 3331 -227 0
1 -3331 -377 0
1 3346 227 0
1 3346 271 0
1 3346 241 0
1 3346 3345 0
1 -3346 377 0
1 -3346 -347 0
1 -3346 286 0
1 -301 3271 0
1 -301 -3241 0
1 -301 3195 0
1 -301 3166 0
1 316 3301 0
1 -316 -3210 0
1 316 3256 0
1 316 -3166 0
1 -331 -3181 0
1 331 -3151 0
1 331 3196 0
1 331 -3166 0
1 -346 -3301 0
1 346 3241 0
1 -346 331 0
1 346 3181 0
1 -346 3316 0
1 -346 -345 0
1 3241 -3256 0
1 3241 331 0
1 3256 361 0
1 3256 331 0
1 -3256 271 0
1 3256 436 0
1 3256 406 0
1 -3256 -3255 0
1 3256 -376 0
1 -3271 -3270 0
1 -3286 -3287 0
1 -3286 -362 0
1 3286 436 0
1 -3286 407 0
1 -3286 -377 0
1 3286 346 0
1 3286 -286 0
1 361 3241 0
1 361 3151 0
1 361 -3226 0
1 361 3166 0
1 -376 361 0
1 376 3241 0
1 376 -3151 0
1 -376 377 0
1 -376 3226 0
1 376 -3166 0
1 -391 392 0
1 391 3122 0
1 391 -3091 0
1 391 406 0
1 406 3137 0
1 406 3106 0
1 -406 -391 0
1 -406 -3241 0
1 406 407 0
1 -406 -3256 0
1 406 -3226 0
1 -3181 -481 0
1 3181 -420 0
1 -3181 -391 0
1 3181 -331 0
1 -3181 -465 0
1 3196 -420 0
1 -3196 -391 0
1 -3196 361 0
1 3196 -3181 0
1 3211 -451 0
1 3211 421 0
1 3211 391 0
1 3211 3226 0
1 -3211 -3212 0
1 -3211 -466 0
1 3211 -436 0
1 -3211 346 0
1 -3226 -331 0
1 3226 3211 0
1 -3226 -496 0
1 3226 -376 0
1 -3226 3225 0
1 -3226 346 0
1 3226 -3227 0
1 420 -3106 0
1 420 421 0
1 420 3046 0
1 420 435 0
1 -435 -3106 0
1 -435 -420 0
1 435 -3181 0
1 -435 3152 0
1 -435 -3031 0
1 -435 3196 0
1 -450 3137 0
1 450 3152 0
1 450 -3062 0
1 -450 3031 0
1 465 -3062 0
1 3122 -480 0
1 3122 525 0
1 3122 495 0
1 3122 406 0
1 -3122 510 0
1 -3137 480 0
1 -3137 510 0
1 3152 -420 0
1 -3152 -556 0
1 3152 3153 0
1 3152 3167 0
1 -3167 391 0
1 3167 -465 0
1 -3167 3152 0
1 3167 -406 0
1 -480 3137 0
1 -480 -3046 0
1 -480 -495 0
1 495 -480 0
1 -495 3137 0
1 495 -3046 0
1 495 3016 0
1 -495 496 0
1 495 -3001 0
1 510 3137 0
1 510 3047 0
1 510 -3017 0
1 510 -525 0
1 -510 -3122 0
1 -510 -3092 0
1 510 3062 0
1 510 -3032 0
1 525 -3077 0
1 -525 -526 0
1 -525 -3032 0
1 -525 3002 0
1 525 510 0
1 3062 450 0
1 3062 -615 0
1 3062 555 0
1 3062 495 0
1 -3062 465 0
1 -3062 -510 0
1 -3077 555 0
1 -3092 -615 0
1 -3092 586 0
1 3092 465 0
1 3092 -3093 0
1 -3092 -571 0
1 -3107 -480 0
1 3107 615 0
1 -3107 -586 0
1 3107 525 0
1 3107 -465 0
1 -3107 600 0
1 3107 -571 0
1 3107 -510 0
1 -540 3002 0
1 -555 3047 0
1 -570 3077 0
1 570 3017 0
1 -570 -3032 0
1 -570 3002 0
1 570 571 0
1 585 -3002 0
1 585 3047 0
1 -3002 -585 0
1 -3002 -3017 0
1 3002 -525 0
1 3002 3001 0
1 -3002 570 0
1 -3002 -540 0
1 3017 -3016 0
1 -3017 585 0
1 3017 660 0
1 -3032 615 0
1 -3032 -3047 0
1 -3032 525 0
1 -3032 -630 0
1 3032 3031 0
1 3032 600 0
1 3032 570 0
1 3032 -540 0
1 3032 -510 0
1 3047 645 0
1 -3047 -660 0
1 -3047 -3032 0
1 3047 -600 0
1 -3047 -510 0
1 -63 78 0
1 78 3660 0
1 -78 63 0
1 -93 -3690 0
1 -93 3660 0
1 93 -3630 0
1 93 -3600 0
1 93 3615 0
1 -108 3645 0
1 -108 3675 0
1 -108 -93 0
1 -3660 168 0
1 -3660 153 0
1 -3660 -93 0
1 -3660 -63 0
1 -3675 -108 0
1 3675 -3660 0
1 3675 78 0
1 -3675 3676 0
1 3690 108 0
1 -3705 63 0
1 -123 -138 0
1 123 3660 0
1 -123 3630 0
1 -123 -3675 0
1 -123 3645 0
1 -123 3615 0
1 138 -3630 0
1 138 -3600 0
1 138 3510 0
1 138 123 0
1 -138 -3645 0
1 153 -3555 0
1 153 168 0
1 -153 3630 0
1 153 3600 0
1 153 3540 0
1 -153 3675 0
1 168 -3585 0
1 168 167 0
1 168 -3660 0
1 -168 -3630 0
1 168 -3510 0
1 -3600 198 0
1 -3600 -138 0
1 -3600 213 0
1 -3600 153 0
1 3600 -123 0
1 -3615 -123 0
1 -3615 -93 0
1 -3630 243 0
1 3630 -153 0
1 -3630 -93 0
1 3645 138 0
1 -3645 -108 0
1 -3645 243 0
1 -3645 153 0
1 -3645 123 0
1 -3645 -93 0
1 -183 3585 0
1 -183 -3555 0
1 183 198 0
1 183 -3570 0
1 198 -3465 0
1 198 -3600 0
1 198 -3570 0
1 198 -3480 0
1 213 -3585 0
1 -213 3555 0
1 -213 228 0
1 -213 -3496 0
1 -213 3465 0
1 -213 -3481 0
1 213 3450 0
1 -228 3496 0
1 228 3511 0
1 -3540 -228 0
1 3540 198 0
1 3540 168 0
1 3540 -303 0
1 3540 3541 0
1 -3555 168 0
1 3555 -303 0
1 -3555 -272 0
1 -3555 213 0
1 -3555 -183 0
1 3555 318 0
1 -3570 303 0
1 3570 -273 0
1 3570 243 0
1 -3570 -183 0
1 -3585 -288 0
1 3585 3586 0
1 3585 -168 0
1 3585 -303 0
1 -3585 -213 0
1 3585 -318 0
1 242 -3465 0
1 -242 -3435 0
1 -242 -241 0
1 242 3540 0
1 242 3420 0
1 242 3390 0
1 257 258 0
1 -257 3526 0
1 -257 3496 0
1 -257 -242 0
1 -257 -3540 0
1 257 3511 0
1 -257 3420 0
1 -272 -3555 0
1 -272 -3526 0
1 -272 3451 0
1 -272 -3421 0
1 -287 288 0
1 287 3555 0
1 287 3526 0
1 287 3496 0
1 3481 -3496 0
1 -3481 -363 0
1 3481 3480 0
1 3496 332 0
1 -3496 -302 0
1 3496 -272 0
1 -3496 -213 0
1 -3496 347 0
1 3496 -287 0
1 -3511 -228 0
1 -3511 3526 0
1 -3511 -363 0
1 -3511 -303 0
1 -3526 257 0
1 -3526 228 0
1 -3526 303 0
1 -3526 -242 0
1 3526 3511 0
1 3526 -378 0
1 302 -3436 0
1 302 -301 0
1 -302 3405 0
1 302 -303 0
1 -302 3451 0
1 317 -3331 0
1 317 3496 0
1 317 -3375 0
1 -317 -3346 0
1 317 -316 0
1 317 318 0
1 332 -3331 0
1 332 3481 0
1 347 3361 0
1 347 -3496 0
1 -347 -3406 0
1 347 -3346 0
1 -347 3481 0
1 347 348 0
1 3421 -392 0
1 -3421 -332 0
1 -3421 -287 0
1 -3436 362 0
1 -3436 -3435 0
1 -3436 272 0
1 3436 -437 0
1 3436 -347 0
1 -3451 393 0
1 -3451 -302 0
1 -3451 3450 0
1 3451 272 0
1 3466 393 0
1 -3466 3467 0
1 -3466 -302 0
1 3466 378 0
1 -362 -363 0
1 -362 -3406 0
1 -362 -3346 0
1 -362 -3421 0
1 -377 3301 0
1 -377 -3436 0
1 377 376 0
1 392 -3302 0
1 392 -393 0
1 407 3317 0
1 -407 406 0
1 -407 -408 0
1 407 -3421 0
1 3361 -3362 0
1 3361 421 0
1 -3361 392 0
1 3361 -436 0
1 -3361 407 0
1 3361 377 0
1 3361 -347 0
1 -3376 3361 0
1 3376 451 0
1 3376 -392 0
1 3376 -497 0
1 -3376 466 0
1 -3376 3377 0
1 -3376 -377 0
1 -3391 392 0
1 3391 -332 0
1 -3391 467 0
1 3391 407 0
1 3391 -3390 0
1 3406 452 0
1 3406 332 0
1 -3406 -3407 0
1 3406 497 0
1 3406 -467 0
1 3406 -437 0
1 3406 377 0
1 3406 -3391 0
1 -421 -420 0
1 421 -3241 0
1 -421 3376 0
1 -421 3256 0
1 -421 -3226 0
1 436 3361 0
1 436 -3332 0
1 436 -3302 0
1 436 3256 0
1 451 -3302 0
1 451 3211 0
1 451 -3376 0
1 -451 466 0
1 451 -3257 0
1 -466 3361 0
1 -466 3242 0
1 -466 3211 0
1 -466 -3347 0
1 466 3257 0
1 -3302 -451 0
1 -3302 421 0
1 3302 392 0
1 -3302 407 0
1 -3317 421 0
1 -3317 3302 0
1 -3317 436 0
1 3317 3318 0
1 3317 -407 0
1 3332 -497 0
1 3332 436 0
1 3332 407 0
1 -3347 451 0
1 3347 -497 0
1 3347 -3346 0
1 -481 -480 0
1 481 -3211 0
1 -481 3181 0
1 481 -3257 0
1 496 -481 0
1 496 3152 0
1 496 -3257 0
1 496 -3226 0
1 -496 -3196 0
1 -511 -3302 0
1 -511 -3257 0
1 -526 -3242 0
1 -526 525 0
1 -526 3152 0
1 -526 3167 0
1 -3242 616 0
1 3242 466 0
1 3242 511 0
1 -3257 -481 0
1 -3257 -451 0
1 3257 3242 0
1 -3257 526 0
1 -3257 -466 0
1 3257 3256 0
1 3257 -3258 0
1 -3257 -541 0
1 3272 557 0
1 3272 -601 0
1 -3287 526 0
1 3287 -496 0
1 -3287 601 0
1 -3287 572 0
1 -541 -3242 0
1 541 -3152 0
1 -541 3167 0
1 -556 -555 0
1 556 3182 0
1 556 3227 0
1 -556 -3167 0
1 571 3197 0
1 586 -3182 0
1 586 3092 0
1 586 3257 0
1 -586 -3197 0
1 -3182 3181 0
1 -3182 630 0
1 -3182 -571 0
1 -3182 541 0
1 -3182 511 0
1 -3197 676 0
1 -3197 586 0
1 3197 -526 0
1 3197 600 0
1 -3197 571 0
1 -3212 -631 0
1 3212 601 0
1 -3212 541 0
1 3227 -526 0
1 3227 -3226 0
1 3227 3228 0
1 3227 -541 0
1 3227 -511 0
1 -600 3168 0
1 600 -3107 0
1 600 3077 0
1 -600 3182 0
1 -600 3153 0
1 600 3123 0
1 600 601 0
1 -615 3138 0
1 -615 3047 0
1 615 3182 0
1 615 -3062 0
1 630 -645 0
1 630 3078 0
1 630 -3153 0
1 630 -3063 0
1 -630 3032 0
1 630 3197 0
1 -645 3168 0
1 -645 -646 0
1 -645 3047 0
1 -645 -3153 0
1 3123 705 0
1 3123 3138 0
1 3123 586 0
1 -3123 721 0
1 3123 3122 0
1 -3123 -571 0
1 3138 -3137 0
1 -3138 -645 0
1 -3138 615 0
1 3138 586 0
1 -3138 721 0
1 -3138 -3123 0
1 3138 660 0
1 -3138 630 0
1 -3138 -600 0
1 -3153 -3168 0
1 3153 -706 0
1 3153 -661 0
1 3153 -600 0
1 -3168 -736 0
1 3168 -676 0
1 -3168 -630 0
1 -660 -3047 0
1 660 3063 0
1 660 3032 0
1 -675 -676 0
1 -675 3108 0
1 -675 660 0
1 675 3032 0
1 -690 -705 0
1 690 3123 0
1 -705 706 0
1 -705 -3138 0
1 -705 -3123 0
1 -3063 720 0
1 -3063 690 0
1 3063 660 0
1 3078 675 0
1 -3078 3077 0
1 -3078 -690 0
1 -3078 660 0
1 3078 630 0
1 -3078 -735 0
1 3093 -751 0
1 3093 721 0
1 -3108 -751 0
1 -3108 -690 0
1 -3108 -660 0
1 -720 3033 0
1 735 3078 0
1 -735 3048 0
1 -735 -3063 0
1 735 3033 0
1 -750 3048 0
1 -765 -3018 0
1 -765 766 0
1 3003 -690 0
1 -3003 735 0
1 -3018 705 0
1 -3018 -720 0
1 3018 735 0
1 3033 -720 0
1 3033 690 0
1 -3048 -705 0
1 3048 3033 0
1 -3048 -765 0
1 -243 258 0
1 243 3600 0
1 243 3615 0
1 -258 -3691 0
1 -258 -3600 0
1 -258 3706 0
1 -273 -3585 0
1 -273 3616 0
1 -273 -3691 0
1 273 -272 0
1 -273 3570 0
1 -273 -3706 0
1 273 3646 0
1 288 3570 0
1 288 -3646 0
1 3661 288 0
1 3661 3660 0
1 3661 -3662 0
1 3661 -243 0
1 -3661 -3676 0
1 3676 -318 0
1 3691 3692 0
1 -3691 243 0
1 -3691 3706 0
1 -3706 -288 0
1 3706 258 0
1 3706 -3691 0
1 3706 243 0
1 303 3616 0
1 303 3601 0
1 303 3676 0
1 318 3526 0
1 318 303 0
1 -318 3570 0
1 333 -3676 0
1 -348 3616 0
1 -348 -3661 0
1 3601 -273 0
1 -3601 3602 0
1 3616 3617 0
1 3616 -423 0
1 3616 333 0
1 3616 -3601 0
1 3616 318 0
1 3631 303 0
1 -3631 -3632 0
1 3631 348 0
1 3646 423 0
1 -3646 3631 0
1 3646 273 0
1 -363 3616 0
1 363 -3556 0
1 -363 3496 0
1 -363 3451 0
1 -378 3616 0
1 378 -3586 0
1 378 3496 0
1 -378 3571 0
1 378 3541 0
1 393 3556 0
1 -393 -3527 0
1 393 -392 0
1 393 3497 0
1 -393 3466 0
1 -393 -3601 0
1 -408 -3527 0
1 -408 -3571 0
1 -408 -3541 0
1 408 -3451 0
1 -3541 452 0
1 -3541 -422 0
1 3541 -363 0
1 -3541 -437 0
1 3541 -348 0
1 3556 -3557 0
1 3556 393 0
1 -3556 363 0
1 -3556 -498 0
1 -3556 -437 0
1 -3556 378 0
1 -3571 -453 0
1 3571 -393 0
1 -3571 -3570 0
1 -3571 438 0
1 3571 348 0
1 -3586 3585 0
1 3586 483 0
1 -3586 3587 0
1 -3586 453 0
1 3586 498 0
1 3586 -348 0
1 -422 -3556 0
1 422 3497 0
1 422 3406 0
1 422 -3541 0
1 -422 -3421 0
1 -422 3391 0
1 -437 3527 0
1 -437 -3541 0
1 437 438 0
1 452 -453 0
1 452 -3437 0
1 452 3406 0
1 -452 -467 0
1 -452 -3452 0
1 -467 3556 0
1 -467 3467 0
1 -467 -3437 0
1 -467 466 0
1 -467 3512 0
1 467 3422 0
1 -3482 -452 0
1 -3482 -3497 0
1 3482 408 0
1 -3497 -512 0
1 3497 482 0
1 3497 422 0
1 3497 -3496 0
1 -3497 -3498 0
1 3497 -408 0
1 3512 483 0
1 3512 -422 0
1 3512 -498 0
1 3512 437 0
1 3512 -408 0
1 3512 3513 0
1 -3527 483 0
1 -3527 3526 0
1 -3527 -558 0
1 -3527 -528 0
1 3527 -408 0
1 482 -481 0
1 482 -3406 0
1 -482 3376 0
1 -482 -3347 0
1 -497 -3332 0
1 497 3497 0
1 497 -3437 0
1 497 -3406 0
1 497 -3347 0
1 497 -3422 0
1 -512 3392 0
1 -512 3497 0
1 -512 -3482 0
1 -512 -511 0
1 527 3392 0
1 527 3497 0
1 -527 3377 0
1 -527 -3482 0
1 -527 -3422 0
1 -3422 482 0
1 3422 -557 0
1 3422 -3437 0
1 -3422 -467 0
1 3422 -572 0
1 3422 -3423 0
1 3437 482 0
1 -3437 -617 0
1 3437 -467 0
1 -3437 602 0
1 3452 512 0
1 -3452 -482 0
1 3452 -617 0
1 3452 -3467 0
1 3452 -558 0
1 3452 3453 0
1 3452 602 0
1 -3452 -573 0
1 3467 452 0
1 3467 617 0
1 3467 -588 0
1 -3467 527 0
1 -557 -3332 0
1 557 3302 0
1 557 -3407 0
1 -572 3392 0
1 -572 3303 0
1 572 587 0
1 -572 -3437 0
1 -572 3407 0
1 572 3318 0
1 -572 -573 0
1 587 3303 0
1 -587 3437 0
1 -587 -3377 0
1 -587 3287 0
1 3362 646 0
1 -3362 -587 0
1 3362 -557 0
1 3377 677 0
1 3377 -616 0
1 -3377 -587 0
1 3377 -557 0
1 -3377 527 0
1 -3377 -631 0
1 -3377 601 0
1 3377 572 0
1 -3392 512 0
1 -3392 647 0
1 3392 617 0
1 3392 -527 0
1 3392 -3407 0
1 -3407 -3406 0
1 -3407 -527 0
1 -601 -3333 0
1 601 3303 0
1 -601 3212 0
1 601 3348 0
1 -601 3318 0
1 -601 600 0
1 -601 -602 0
1 601 -3227 0
1 -616 3242 0
1 -616 3212 0
1 616 -3377 0
1 616 -3348 0
1 616 3318 0
1 -616 -3227 0
1 -631 3362 0
1 -631 3273 0
1 -631 3348 0
1 -631 -630 0
1 631 632 0
1 -631 3258 0
1 -646 -3362 0
1 646 -645 0
1 -646 -3303 0
1 646 -3288 0
1 -646 -3258 0
1 -3303 -706 0
1 -3303 -676 0
1 3303 -3302 0
1 3303 691 0
1 3303 -631 0
1 -3318 -646 0
1 3318 691 0
1 -3318 3317 0
1 3318 -631 0
1 -3318 -601 0
1 -3333 646 0
1 3333 -616 0
1 -3333 722 0
1 3333 -662 0
1 3333 -631 0
1 -3348 -737 0
1 3348 -616 0
1 3348 -587 0
1 -3348 3347 0
1 -3348 -601 0
1 661 3273 0
1 -661 -3212 0
1 661 3258 0
1 -661 3227 0
1 676 3153 0
1 -676 -3227 0
1 -691 -3273 0
1 -691 3243 0
1 -691 3183 0
1 691 3153 0
1 -706 -707 0
1 706 -3183 0
1 -706 -3153 0
1 -706 3318 0
1 706 3198 0
1 3243 751 0
1 3243 -721 0
1 -3243 -691 0
1 3243 -631 0
1 3243 3258 0
1 3258 706 0
1 -3258 646 0
1 -3258 -661 0
1 -3273 722 0
1 -3273 767 0
1 -3288 737 0
1 3288 646 0
1 -3288 -661 0
1 -3288 767 0
1 -721 3138 0
1 736 -3258 0
1 -751 -750 0
1 751 -3183 0
1 766 -751 0
1 -766 -3093 0
1 -766 3228 0
1 766 765 0
1 -766 3198 0
1 -3183 -721 0
1 3183 -3198 0
1 3198 706 0
1 -3213 736 0
1 -3228 736 0
1 -3228 766 0
1 423 -422 0
1 -423 3601 0
1 -423 -3571 0
1 438 -3586 0
1 -438 423 0
1 -438 -3692 0
1 438 3707 0
1 -438 -3677 0
1 453 3586 0
1 -453 3602 0
1 -453 468 0
1 453 3707 0
1 453 3677 0
1 -468 -3632 0
1 -468 -3602 0
1 468 -3647 0
1 -3662 -3661 0
1 -3662 528 0
1 3677 513 0
1 3677 483 0
1 3677 -3662 0
1 -3677 -468 0
1 3677 438 0
1 -3677 3676 0
1 3692 -423 0
1 3707 -438 0
1 -483 3617 0
1 -483 -498 0
1 498 -497 0
1 498 -3541 0
1 513 -528 0
1 513 3632 0
1 513 -3602 0
1 -513 -3677 0
1 -528 3542 0
1 528 -3677 0
1 3602 618 0
1 -3602 3603 0
1 -3617 3616 0
1 -3617 -483 0
1 -3617 453 0
1 3617 -618 0
1 -3617 498 0
1 3617 3602 0
1 3632 513 0
1 3632 -453 0
1 3632 -3631 0
1 -3632 -468 0
1 3632 -603 0
1 3647 618 0
1 3647 528 0
1 -3647 -3632 0
1 -3647 603 0
1 -543 3617 0
1 -543 -3497 0
1 543 3467 0
1 -543 558 0
1 -543 -3602 0
1 -543 -3572 0
1 558 3497 0
1 -558 557 0
1 -558 -3572 0
1 558 3512 0
1 -573 3617 0
1 573 3498 0
1 -573 -3467 0
1 573 -572 0
1 -588 -3617 0
1 -588 3587 0
1 -588 -587 0
1 3542 -3543 0
1 3542 3557 0
1 -3542 678 0
1 -3542 -617 0
1 3542 -602 0
1 -3542 -573 0
1 -3557 3556 0
1 3557 -617 0
1 -3557 588 0
1 3557 -3542 0
1 -3557 -663 0
1 3557 632 0
1 -3557 543 0
1 -3572 528 0
1 -3572 663 0
1 3572 633 0
1 -3572 573 0
1 -3572 -543 0
1 -3587 -3588 0
1 -3587 588 0
1 -3587 -558 0
1 602 3392 0
1 602 3528 0
1 602 3467 0
1 -602 3437 0
1 602 3407 0
1 -602 -3483 0
1 -617 -3498 0
1 617 3513 0
1 617 3452 0
1 632 3513 0
1 -632 -3438 0
1 632 -631 0
1 647 3557 0
1 -647 648 0
1 -647 -3498 0
1 -647 -3513 0
1 -3483 738 0
1 3483 -677 0
1 3483 -3482 0
1 -3483 692 0
1 -3483 573 0
1 3498 588 0
1 3498 -723 0
1 3498 -632 0
1 -3498 602 0
1 3513 -708 0
1 3513 588 0
1 3513 723 0
1 -3513 693 0
1 -3513 573 0
1 -3528 738 0
1 -3528 647 0
1 3528 617 0
1 -662 3407 0
1 -662 -663 0
1 -677 -3333 0
1 -677 678 0
1 -677 -3498 0
1 -677 -3438 0
1 -677 3348 0
1 -677 662 0
1 -677 3423 0
1 692 707 0
1 692 3363 0
1 -692 3333 0
1 -692 -3348 0
1 707 706 0
1 707 -708 0
1 -707 -3378 0
1 707 3453 0
1 3423 647 0
1 -3423 -752 0
1 3438 -767 0
1 3453 768 0
1 -3453 738 0
1 3453 -723 0
1 3453 -662 0
1 3453 3452 0
1 3468 632 0
1 -722 -737 0
1 -722 3438 0
1 722 721 0
1 -722 3378 0
1 -722 -723 0
1 -722 3348 0
1 737 -3333 0
1 737 -3378 0
1 -752 -751 0
1 -752 753 0
1 -752 767 0
1 -767 -3393 0
1 -767 -3273 0
1 767 -3438 0
1 767 3288 0
1 -3363 -707 0
1 -3378 3363 0
1 3378 -752 0
1 3378 3377 0
1 -3393 3392 0
1 3408 -737 0
1 3408 3393 0
1 3408 -692 0
1 -3408 767 0
1 603 -3587 0
1 -603 3602 0
1 -603 3647 0
1 -618 617 0
1 618 -3602 0
1 -618 603 0
1 -618 -3708 0
1 618 -3647 0
1 633 3648 0
1 633 632 0
1 633 -3678 0
1 648 -3648 0
1 -648 -647 0
1 -648 -3633 0
1 -648 3572 0
1 648 633 0
1 -3663 -708 0
1 -3663 648 0
1 -3663 -3678 0
1 3663 -3662 0
1 -3663 603 0
1 3678 678 0
1 -3678 3663 0
1 3708 618 0
1 -663 -3528 0
1 663 -3572 0
1 663 662 0
1 -663 3542 0
1 678 -3648 0
1 678 -3557 0
1 -678 3528 0
1 678 3542 0
1 -678 3678 0
1 -693 -3528 0
1 693 -3663 0
1 693 3633 0
1 -693 3603 0
1 693 3543 0
1 708 -3618 0
1 -708 -3588 0
1 708 3528 0
1 708 3633 0
1 708 3513 0
1 708 -3678 0
1 -3603 693 0
1 -3603 -633 0
1 3618 738 0
1 -3633 678 0
1 3633 -648 0
1 -3633 3632 0
1 -3633 663 0
1 3648 -708 0
1 -3648 -648 0
1 3648 -3633 0
1 3648 663 0
1 3648 3647 0
1 -723 738 0
1 -723 3618 0
1 723 -3528 0
1 -723 -3498 0
1 723 -3468 0
1 -723 -722 0
1 -738 -3558 0
1 738 3528 0
1 -738 -3513 0
1 -738 3453 0
1 753 3588 0
1 753 752 0
1 768 -3618 0
1 -768 3453 0
1 -768 767 0
1 3543 -708 0
1 -3543 753 0
1 -3543 -723 0
1 -3558 723 0
1 3573 -3588 0
1 3573 -693 0
1 -3588 -708 0
1 3588 -693 0
1 3588 3573 0
